letting initialStacks = [32, 34, 25, 9, 10, 16, 2, 20, 46, 40, 33, 19, 47, 23, 51, 24, 31, 43, 21, 3, 45, 49, 13, 48, 42, 38, 4, 36, 22, 14, 5, 17, 39, 30, 18, 1, 35, 26, 50, 29, 15, 44, 41, 12, 28, 6, 37, 11, 27, 7, 8]
